data/solutions/recovery/degenerate/moderate/flexible/degenerate_moderate_instance1/22.sol
Elapsed time: 0.04
Upper bound: 240431.0
Planning weighted value: 2118845.0
C[0]=240431.0
C[1]=238561.0
C[2]=232144.0
y[0]=1
y[1]=0
y[2]=0
y[3]=2
y[4]=2
y[5]=2
y[6]=2
y[7]=1
y[8]=0
y[9]=1
y[10]=1
y[11]=2
y[12]=2
y[13]=1
y[14]=1
y[15]=1
y[16]=2
y[17]=2
y[18]=0
y[19]=1
y[20]=0
y[21]=0
